9957.0
[1, 1, 1, 1, 1, 1, 1, 1, 1, 1, 1, 1, 1, 1, 1, 1, 1, 1, 1, 1]
[12, 10, 11, 9, 15, 18, 16, 3, 17, 1, 11, 18, 6, 10, 6, 15, 0, 2, 14, 14, 5, 11, 9, 8, 12, 8, 11, 16, 17, 13, 7, 19, 6, 8, 14, 10, 10, 0, 0, 1, 1, 3, 3, 16, 9, 5, 8, 19, 15, 15, 16, 17, 7, 13, 13, 5, 2, 14, 14, 14, 11, 11, 4, 3, 11, 3, 0, 15, 19, 6, 10, 18, 19, 19, 19, 18, 18, 18, 19, 19]